c description: Tseitin formula on Random 4-regular graph of 16 vertices, with odd charge
c generator: CNFgen (0.9.2)
c copyright: (C) 2012-2022 Massimo Lauria <massimo.lauria@uniroma1.it>
c url: https://massimolauria.net/cnfgen
c command line: cnfgen tseitin 16
c
p cnf 32 128
1 2 3 -4 0
1 2 -3 4 0
1 -2 3 4 0
1 -2 -3 -4 0
-1 2 3 4 0
-1 2 -3 -4 0
-1 -2 3 -4 0
-1 -2 -3 4 0
5 6 7 -8 0
5 6 -7 8 0
5 -6 7 8 0
5 -6 -7 -8 0
-5 6 7 8 0
-5 6 -7 -8 0
-5 -6 7 -8 0
-5 -6 -7 8 0
9 10 11 -12 0
9 10 -11 12 0
9 -10 11 12 0
9 -10 -11 -12 0
-9 10 11 12 0
-9 10 -11 -12 0
-9 -10 11 -12 0
-9 -10 -11 12 0
5 13 14 15 0
5 13 -14 -15 0
5 -13 14 -15 0
5 -13 -14 15 0
-5 13 14 -15 0
-5 13 -14 15 0
-5 -13 14 15 0
-5 -13 -14 -15 0
16 17 18 -19 0
16 17 -18 19 0
16 -17 18 19 0
16 -17 -18 -19 0
-16 17 18 19 0
-16 17 -18 -19 0
-16 -17 18 -19 0
-16 -17 -18 19 0
1 16 20 -21 0
1 16 -20 21 0
1 -16 20 21 0
1 -16 -20 -21 0
-1 16 20 21 0
-1 16 -20 -21 0
-1 -16 20 -21 0
-1 -16 -20 21 0
13 17 22 23 0
13 17 -22 -23 0
13 -17 22 -23 0
13 -17 -22 23 0
-13 17 22 -23 0
-13 17 -22 23 0
-13 -17 22 23 0
-13 -17 -22 -23 0
6 9 24 -25 0
6 9 -24 25 0
6 -9 24 25 0
6 -9 -24 -25 0
-6 9 24 25 0
-6 9 -24 -25 0
-6 -9 24 -25 0
-6 -9 -24 25 0
10 26 27 -28 0
10 26 -27 28 0
10 -26 27 28 0
10 -26 -27 -28 0
-10 26 27 28 0
-10 26 -27 -28 0
-10 -26 27 -28 0
-10 -26 -27 28 0
11 18 29 30 0
11 18 -29 -30 0
11 -18 29 -30 0
11 -18 -29 30 0
-11 18 29 -30 0
-11 18 -29 30 0
-11 -18 29 30 0
-11 -18 -29 -30 0
2 14 26 31 0
2 14 -26 -31 0
2 -14 26 -31 0
2 -14 -26 31 0
-2 14 26 -31 0
-2 14 -26 31 0
-2 -14 26 31 0
-2 -14 -26 -31 0
20 22 27 32 0
20 22 -27 -32 0
20 -22 27 -32 0
20 -22 -27 32 0
-20 22 27 -32 0
-20 22 -27 32 0
-20 -22 27 32 0
-20 -22 -27 -32 0
3 19 21 28 0
3 19 -21 -28 0
3 -19 21 -28 0
3 -19 -21 28 0
-3 19 21 -28 0
-3 19 -21 28 0
-3 -19 21 28 0
-3 -19 -21 -28 0
4 7 29 32 0
4 7 -29 -32 0
4 -7 29 -32 0
4 -7 -29 32 0
-4 7 29 -32 0
-4 7 -29 32 0
-4 -7 29 32 0
-4 -7 -29 -32 0
8 15 24 31 0
8 15 -24 -31 0
8 -15 24 -31 0
8 -15 -24 31 0
-8 15 24 -31 0
-8 15 -24 31 0
-8 -15 24 31 0
-8 -15 -24 -31 0
12 23 25 30 0
12 23 -25 -30 0
12 -23 25 -30 0
12 -23 -25 30 0
-12 23 25 -30 0
-12 23 -25 30 0
-12 -23 25 30 0
-12 -23 -25 -30 0
